
Log started (V12.6.3.0) Thu Jan 25 20:43:03 2018

New value for default parallel thread count: 1

Problem '/tmp/tmpARa6RV.pyomo.lp' read.
Read time = 0.00 sec. (0.04 ticks)

Problem name         : /tmp/tmpARa6RV.pyomo.lp
Objective sense      : Minimize
Variables            :     520  [Nneg: 505,  Binary: 14,  General Integer: 1]
Objective nonzeros   :       1
Linear constraints   :      88  [Less: 14,  Equal: 74]
  Nonzeros           :    1540
  RHS nonzeros       :      28

Variables            : Min LB: 0.000000         Max UB: 1.000000       
Objective nonzeros   : Min   : 1.000000         Max   : 1.000000       
Linear constraints   :
  Nonzeros           : Min   : 1.000000         Max   : 2564.457       
  RHS nonzeros       : Min   : 1.000000         Max   : 2782.544       
Tried aggregator 2 times.
MIP Presolve eliminated 52 rows and 422 columns.
MIP Presolve added 1 rows and 1 columns.
MIP Presolve modified 11 coefficients.
Aggregator did 3 substitutions.
Reduced MIP has 34 rows, 96 columns, and 259 nonzeros.
Reduced MIP has 9 binaries, 1 generals, 0 SOSs, and 0 indicators.
Presolve time = 0.00 sec. (0.44 ticks)
Found incumbent of value 12.000000 after 0.00 sec. (0.69 ticks)
Probing fixed 1 vars, tightened 3 bounds.
Probing time = 0.00 sec. (0.01 ticks)
Tried aggregator 1 time.
MIP Presolve eliminated 1 rows and 3 columns.
Reduced MIP has 33 rows, 93 columns, and 239 nonzeros.
Reduced MIP has 6 binaries, 1 generals, 0 SOSs, and 0 indicators.
Presolve time = 0.00 sec. (0.11 ticks)
Probing time = 0.00 sec. (0.01 ticks)
Clique table members: 1.
MIP emphasis: balance optimality and feasibility.
MIP search method: dynamic search.
Parallel mode: none, using 1 thread.
Root relaxation solution time = 0.00 sec. (0.13 ticks)

        Nodes                                         Cuts/
   Node  Left     Objective  IInf  Best Integer    Best Bound    ItCnt     Gap

*     0+    0                           12.0000        7.0000            41.67%
      0     0        7.4481     2       12.0000        7.4481       38   37.93%
*     0+    0                            8.0000        7.4481             6.90%
      0     0        cutoff              8.0000        7.4481       38    6.90%
Elapsed time = 0.00 sec. (1.08 ticks, tree = 0.01 MB, solutions = 2)

Root node processing (before b&c):
  Real time             =    0.00 sec. (1.10 ticks)
Sequential b&c:
  Real time             =    0.00 sec. (0.00 ticks)
                          ------------
Total (root+branch&cut) =    0.00 sec. (1.10 ticks)

Solution pool: 2 solutions saved.

MIP - Integer optimal solution:  Objective =  8.0000000000e+00
Solution time =    0.00 sec.  Iterations = 38  Nodes = 0
Deterministic time = 1.10 ticks  (426.83 ticks/sec)


Incumbent solution written to file '/tmp/tmp6VvAWy.cplex.sol'.
